c case118zh in MATPOWER https://matpower.org
p edge 118 117
e 1 2
e 2 3
e 3 4
e 4 5
e 5 6
e 5 7
e 6 8
e 7 11
e 8 9
e 9 10
e 11 12
e 12 13
e 12 25
e 13 14
e 14 15
e 15 16
e 16 17
e 17 18
e 18 19
e 19 20
e 20 21
e 21 22
e 22 23
e 23 24
e 25 26
e 25 37
e 26 27
e 27 28
e 27 31
e 28 29
e 29 30
e 31 32
e 32 33
e 33 34
e 34 35
e 35 36
e 37 38
e 38 39
e 38 40
e 39 59
e 39 60
e 39 68
e 40 41
e 40 46
e 41 42
e 42 43
e 43 44
e 44 45
e 46 47
e 47 48
e 48 49
e 49 50
e 50 51
e 51 52
e 52 53
e 53 54
e 54 55
e 55 56
e 55 57
e 57 58
e 60 61
e 61 62
e 61 69
e 62 63
e 63 64
e 64 65
e 65 66
e 66 67
e 68 79
e 68 84
e 69 70
e 70 71
e 71 72
e 72 73
e 73 74
e 74 75
e 75 76
e 76 77
e 77 78
e 79 80
e 80 81
e 81 82
e 82 83
e 84 85
e 85 86
e 85 95
e 85 96
e 86 87
e 87 88
e 88 89
e 89 90
e 90 91
e 91 92
e 92 93
e 93 94
e 95 104
e 95 106
e 96 97
e 97 98
e 98 99
e 99 100
e 100 101
e 101 102
e 102 103
e 104 105
e 106 107
e 107 108
e 108 109
e 109 110
e 110 111
e 111 112
e 112 113
e 113 114
e 114 115
e 115 116
e 116 117
e 117 118
l 48
t 24 118
